cost: 1118.68
Route 1:           0   16   63   23   56   41   64   42   43    1   73   33    6    0
Route 2:           0   30   74   21   61   28   22   62    2   68   75    0
Route 3:           0   48   47   36   69   71   60   70   20   37    5   29   45    4    0
Route 4:           0   49   24   18   50   25   55   31   65   66   59   14   35    7    0
Route 5:           0   51    3   44   32    9   39   40   17    0
Route 6:           0   52   27   15   57   13   54   19    8   46   34   67    0
Route 7:           0   12   72   58   10   38   11   53   26    0
